Test: battleship-16-31-sat.cnf
Options: -no-inverting-opt -activity-nl-freq=1
WARNING: for repeatability, setting FPU to use double precision
============================[ Problem Statistics ]=============================
|                                                                             |
|  Number of symmetries:           25                                         |
|  Number of invertingSyms:         0                                         |
|  Number of variables:           496                                         |
|  Number of clauses:            3976                                         |
|  Parse time:                   0.00 s                                       |
|                                                                             |
============================[ Search Statistics ]==============================
| Conflicts |          ORIGINAL         |          LEARNT          | Progress |
|           |    Vars  Clauses Literals |    Limit  Clauses Lit/Cl |          |
===============================================================================
|       100 |     496     3976    15376 |     1457      111    148 |  0.000 % |
|       250 |     496     3976    15376 |     1603      283    148 |  0.000 % |
|       475 |     496     3976    15376 |     1764      549    154 |  0.000 % |
|       812 |     496     3976    15376 |     1940      961    146 |  0.000 % |
|      1318 |     496     3976    15376 |     2134     1625    148 |  0.000 % |
|      2077 |     496     3976    15376 |     2347     1436    156 |  0.000 % |
|      3216 |     496     3976    15376 |     2582     1543    164 |  0.000 % |
|      4924 |     496     3976    15376 |     2840     2205    138 |  0.000 % |
|      7486 |     496     3976    15376 |     3125     2243    227 |  0.000 % |
|     11330 |     496     3976    15376 |     3437     2181    206 |  0.000 % |
|     17096 |     496     3976    15376 |     3781     2040    174 |  0.000 % |
|     25745 |     496     3976    15376 |     4159     2549    199 |  0.000 % |
|     38719 |     496     3976    15376 |     4575     3537    215 |  0.000 % |
|     58180 |     496     3976    15376 |     5032     3112    220 |  0.000 % |
|     87372 |     496     3976    15376 |     5536     3039    201 |  0.000 % |
|    131161 |     496     3976    15376 |     6089     5627    188 |  0.000 % |
|    196845 |     496     3976    15376 |     6698     4859    228 |  0.000 % |
|    295371 |     496     3976    15376 |     7368     5776    201 |  0.000 % |
|    443160 |     496     3976    15376 |     8105     4999    208 |  0.000 % |
|    664843 |     496     3976    15376 |     8916     6206    190 |  0.000 % |
|    997368 |     496     3976    15376 |     9807     5793    231 |  0.000 % |
|   1496156 |     496     3976    15376 |    10788     9770    195 |  0.000 % |
|   2244338 |     496     3976    15376 |    11867     9445    217 |  0.000 % |
===============================================================================
restarts              : 5884
conflicts             : 3304682        (10483 /sec)
symconflicts          : 152506         (484 /sec)
decisions             : 7756500        (0.00 % random) (24605 /sec)
propagations          : 78889072       (250251 /sec)
sympropagations       : 760916         (2414 /sec)
conflict literals     : 716709569      (4.65 % deleted)
literals     : 716709569      (4.65 % deleted)

HEURISTIC USAGES
random                : 0           
activity w/ lookahead : 0           
activity no lookahead : 7756499     
original sp           : 0           
sym count             : 0           

Memory used           : 66.00 MB
CPU time              : 315.24 s

SATISFIABLE
